lattice         bcc 1
region          box block 0 2 0 2 0 2
create_box      1 box
create_atoms    1 box
mass            1 1.0

velocity        all create 10.0 123

pair_style	lj/cut 1.5
pair_coeff	1 1 1.0 1.0 2.5

fix		1 all nve

run 100
